TOUR_SECTION
1
4
165
62
154
147
87
149
145
79
13
24
161
98
152
148
89
138
8
100
186
199
57
39
19
137
141
107
69
37
187
54
128
84
58
2
7
28
101
31
16
104
159
178
46
174
77
103
10
21
125
123
184
97
59
120
85
70
132
105
50
108
6
156
162
139
150
135
169
94
33
158
26
140
122
167
194
61
36
34
188
127
195
117
106
166
64
83
196
72
111
9
119
155
183
151
175
201
86
118
96
170
164
38
182
173
56
27
190
71
20
95
90
45
49
197
124
44
55
99
200
114
192
189
185
12
74
17
53
157
35
22
160
23
52
115
88
73
42
146
180
181
65
14
143
198
113
5
76
102
112
41
126
18
130
81
142
51
134
60
133
75
116
129
131
176
193
177
171
63
168
80
11
25
93
121
32
29
191
82
48
153
15
136
67
30
40
109
78
47
110
3
68
43
163
172
91
92
66
144
179
-1
EOF